p cnf 204 1200
1 -121 -91 0
-1 121 -91 0
1 121 -92 0
-1 -121 -92 0
19 -121 -97 0
-19 121 -97 0
19 121 -98 0
-19 -121 -98 0
37 -121 -103 0
-37 121 -103 0
37 121 -104 0
-37 -121 -104 0
55 -121 -109 0
-55 121 -109 0
55 121 -110 0
-55 -121 -110 0
73 -121 -115 0
-73 121 -115 0
73 121 -116 0
-73 -121 -116 0
2 -91 0
2 -92 0
91 -91 0
92 -92 0
20 -97 0
20 -98 0
97 -97 0
98 -98 0
38 -103 0
38 -104 0
103 -103 0
104 -104 0
56 -109 0
56 -110 0
109 -109 0
110 -110 0
74 -115 0
74 -116 0
115 -115 0
116 -116 0
3 -122 -91 0
-3 122 -91 0
3 122 -92 0
-3 -122 -92 0
21 -122 -97 0
-21 122 -97 0
21 122 -98 0
-21 -122 -98 0
39 -122 -103 0
-39 122 -103 0
39 122 -104 0
-39 -122 -104 0
57 -122 -109 0
-57 122 -109 0
57 122 -110 0
-57 -122 -110 0
75 -122 -115 0
-75 122 -115 0
75 122 -116 0
-75 -122 -116 0
4 -91 0
4 -92 0
91 -91 0
92 -92 0
22 -97 0
22 -98 0
97 -97 0
98 -98 0
40 -103 0
40 -104 0
103 -103 0
104 -104 0
58 -109 0
58 -110 0
109 -109 0
110 -110 0
76 -115 0
76 -116 0
115 -115 0
116 -116 0
5 -91 0
5 -92 0
91 -91 0
92 -92 0
23 -97 0
23 -98 0
97 -97 0
98 -98 0
41 -103 0
41 -104 0
103 -103 0
104 -104 0
59 -109 0
59 -110 0
109 -109 0
110 -110 0
77 -115 0
77 -116 0
115 -115 0
116 -116 0
6 -123 -91 0
-6 123 -91 0
6 123 -92 0
-6 -123 -92 0
24 -123 -97 0
-24 123 -97 0
24 123 -98 0
-24 -123 -98 0
42 -123 -103 0
-42 123 -103 0
42 123 -104 0
-42 -123 -104 0
60 -123 -109 0
-60 123 -109 0
60 123 -110 0
-60 -123 -110 0
78 -123 -115 0
-78 123 -115 0
78 123 -116 0
-78 -123 -116 0
7 -124 -91 0
-7 124 -91 0
7 124 -92 0
-7 -124 -92 0
25 -124 -97 0
-25 124 -97 0
25 124 -98 0
-25 -124 -98 0
43 -124 -103 0
-43 124 -103 0
43 124 -104 0
-43 -124 -104 0
61 -124 -109 0
-61 124 -109 0
61 124 -110 0
-61 -124 -110 0
79 -124 -115 0
-79 124 -115 0
79 124 -116 0
-79 -124 -116 0
8 -91 0
8 -92 0
91 -91 0
92 -92 0
26 -97 0
26 -98 0
97 -97 0
98 -98 0
44 -103 0
44 -104 0
103 -103 0
104 -104 0
62 -109 0
62 -110 0
109 -109 0
110 -110 0
80 -115 0
80 -116 0
115 -115 0
116 -116 0
9 -125 -91 0
-9 125 -91 0
9 125 -92 0
-9 -125 -92 0
27 -125 -97 0
-27 125 -97 0
27 125 -98 0
-27 -125 -98 0
45 -125 -103 0
-45 125 -103 0
45 125 -104 0
-45 -125 -104 0
63 -125 -109 0
-63 125 -109 0
63 125 -110 0
-63 -125 -110 0
81 -125 -115 0
-81 125 -115 0
81 125 -116 0
-81 -125 -116 0
10 -126 -91 0
-10 126 -91 0
10 126 -92 0
-10 -126 -92 0
28 -126 -97 0
-28 126 -97 0
28 126 -98 0
-28 -126 -98 0
46 -126 -103 0
-46 126 -103 0
46 126 -104 0
-46 -126 -104 0
64 -126 -109 0
-64 126 -109 0
64 126 -110 0
-64 -126 -110 0
82 -126 -115 0
-82 126 -115 0
82 126 -116 0
-82 -126 -116 0
11 -91 0
11 -92 0
91 -91 0
92 -92 0
29 -97 0
29 -98 0
97 -97 0
98 -98 0
47 -103 0
47 -104 0
103 -103 0
104 -104 0
65 -109 0
65 -110 0
109 -109 0
110 -110 0
83 -115 0
83 -116 0
115 -115 0
116 -116 0
12 -91 0
12 -92 0
91 -91 0
92 -92 0
30 -97 0
30 -98 0
97 -97 0
98 -98 0
48 -103 0
48 -104 0
103 -103 0
104 -104 0
66 -109 0
66 -110 0
109 -109 0
110 -110 0
84 -115 0
84 -116 0
115 -115 0
116 -116 0
13 -91 0
13 -92 0
91 -91 0
92 -92 0
31 -97 0
31 -98 0
97 -97 0
98 -98 0
49 -103 0
49 -104 0
103 -103 0
104 -104 0
67 -109 0
67 -110 0
109 -109 0
110 -110 0
85 -115 0
85 -116 0
115 -115 0
116 -116 0
14 -127 -91 0
-14 127 -91 0
14 127 -92 0
-14 -127 -92 0
32 -127 -97 0
-32 127 -97 0
32 127 -98 0
-32 -127 -98 0
50 -127 -103 0
-50 127 -103 0
50 127 -104 0
-50 -127 -104 0
68 -127 -109 0
-68 127 -109 0
68 127 -110 0
-68 -127 -110 0
86 -127 -115 0
-86 127 -115 0
86 127 -116 0
-86 -127 -116 0
15 -91 0
15 -92 0
91 -91 0
92 -92 0
33 -97 0
33 -98 0
97 -97 0
98 -98 0
51 -103 0
51 -104 0
103 -103 0
104 -104 0
69 -109 0
69 -110 0
109 -109 0
110 -110 0
87 -115 0
87 -116 0
115 -115 0
116 -116 0
16 -128 -91 0
-16 128 -91 0
16 128 -92 0
-16 -128 -92 0
34 -128 -97 0
-34 128 -97 0
34 128 -98 0
-34 -128 -98 0
52 -128 -103 0
-52 128 -103 0
52 128 -104 0
-52 -128 -104 0
70 -128 -109 0
-70 128 -109 0
70 128 -110 0
-70 -128 -110 0
88 -128 -115 0
-88 128 -115 0
88 128 -116 0
-88 -128 -116 0
17 -129 -91 0
-17 129 -91 0
17 129 -92 0
-17 -129 -92 0
35 -129 -97 0
-35 129 -97 0
35 129 -98 0
-35 -129 -98 0
53 -129 -103 0
-53 129 -103 0
53 129 -104 0
-53 -129 -104 0
71 -129 -109 0
-71 129 -109 0
71 129 -110 0
-71 -129 -110 0
89 -129 -115 0
-89 129 -115 0
89 129 -116 0
-89 -129 -116 0
18 -91 0
18 -92 0
91 -91 0
92 -92 0
36 -97 0
36 -98 0
97 -97 0
98 -98 0
54 -103 0
54 -104 0
103 -103 0
104 -104 0
72 -109 0
72 -110 0
109 -109 0
110 -110 0
90 -115 0
90 -116 0
115 -115 0
116 -116 0
-175 91 0
175 -91 0
-176 92 0
175 -92 0
-175 -91 0
-176 -92 0
-181 91 175 0
181 -91 0
181 -175 0
-182 92 176 0
182 -92 0
182 -176 0
-181 -97 0
-182 -98 0
-187 97 181 0
187 -97 0
187 -181 0
-188 98 182 0
188 -98 0
188 -182 0
-187 -103 0
-188 -104 0
-193 103 187 0
193 -103 0
193 -187 0
-194 104 188 0
194 -104 0
194 -188 0
-193 -109 0
-194 -110 0
-199 109 193 0
199 -109 0
199 -193 0
-200 110 194 0
200 -110 0
200 -194 0
-199 -115 0
-200 -116 0
199 0
200 0
1 -130 -93 0
-1 130 -93 0
1 130 -94 0
-1 -130 -94 0
19 -130 -99 0
-19 130 -99 0
19 130 -100 0
-19 -130 -100 0
37 -130 -105 0
-37 130 -105 0
37 130 -106 0
-37 -130 -106 0
55 -130 -111 0
-55 130 -111 0
55 130 -112 0
-55 -130 -112 0
73 -130 -117 0
-73 130 -117 0
73 130 -118 0
-73 -130 -118 0
2 -93 0
2 -94 0
93 -93 0
94 -94 0
20 -99 0
20 -100 0
99 -99 0
100 -100 0
38 -105 0
38 -106 0
105 -105 0
106 -106 0
56 -111 0
56 -112 0
111 -111 0
112 -112 0
74 -117 0
74 -118 0
117 -117 0
118 -118 0
3 -131 -93 0
-3 131 -93 0
3 131 -94 0
-3 -131 -94 0
21 -131 -99 0
-21 131 -99 0
21 131 -100 0
-21 -131 -100 0
39 -131 -105 0
-39 131 -105 0
39 131 -106 0
-39 -131 -106 0
57 -131 -111 0
-57 131 -111 0
57 131 -112 0
-57 -131 -112 0
75 -131 -117 0
-75 131 -117 0
75 131 -118 0
-75 -131 -118 0
4 -93 0
4 -94 0
93 -93 0
94 -94 0
22 -99 0
22 -100 0
99 -99 0
100 -100 0
40 -105 0
40 -106 0
105 -105 0
106 -106 0
58 -111 0
58 -112 0
111 -111 0
112 -112 0
76 -117 0
76 -118 0
117 -117 0
118 -118 0
5 -132 -93 0
-5 132 -93 0
5 132 -94 0
-5 -132 -94 0
23 -132 -99 0
-23 132 -99 0
23 132 -100 0
-23 -132 -100 0
41 -132 -105 0
-41 132 -105 0
41 132 -106 0
-41 -132 -106 0
59 -132 -111 0
-59 132 -111 0
59 132 -112 0
-59 -132 -112 0
77 -132 -117 0
-77 132 -117 0
77 132 -118 0
-77 -132 -118 0
6 -93 0
6 -94 0
93 -93 0
94 -94 0
24 -99 0
24 -100 0
99 -99 0
100 -100 0
42 -105 0
42 -106 0
105 -105 0
106 -106 0
60 -111 0
60 -112 0
111 -111 0
112 -112 0
78 -117 0
78 -118 0
117 -117 0
118 -118 0
-7 -93 0
-7 -94 0
93 -93 0
94 -94 0
-25 -99 0
-25 -100 0
99 -99 0
100 -100 0
-43 -105 0
-43 -106 0
105 -105 0
106 -106 0
-61 -111 0
-61 -112 0
111 -111 0
112 -112 0
-79 -117 0
-79 -118 0
117 -117 0
118 -118 0
8 -93 0
8 -94 0
93 -93 0
94 -94 0
26 -99 0
26 -100 0
99 -99 0
100 -100 0
44 -105 0
44 -106 0
105 -105 0
106 -106 0
62 -111 0
62 -112 0
111 -111 0
112 -112 0
80 -117 0
80 -118 0
117 -117 0
118 -118 0
-9 -93 0
-9 -94 0
93 -93 0
94 -94 0
-27 -99 0
-27 -100 0
99 -99 0
100 -100 0
-45 -105 0
-45 -106 0
105 -105 0
106 -106 0
-63 -111 0
-63 -112 0
111 -111 0
112 -112 0
-81 -117 0
-81 -118 0
117 -117 0
118 -118 0
10 -133 -93 0
-10 133 -93 0
10 133 -94 0
-10 -133 -94 0
28 -133 -99 0
-28 133 -99 0
28 133 -100 0
-28 -133 -100 0
46 -133 -105 0
-46 133 -105 0
46 133 -106 0
-46 -133 -106 0
64 -133 -111 0
-64 133 -111 0
64 133 -112 0
-64 -133 -112 0
82 -133 -117 0
-82 133 -117 0
82 133 -118 0
-82 -133 -118 0
11 -134 -93 0
-11 134 -93 0
11 134 -94 0
-11 -134 -94 0
29 -134 -99 0
-29 134 -99 0
29 134 -100 0
-29 -134 -100 0
47 -134 -105 0
-47 134 -105 0
47 134 -106 0
-47 -134 -106 0
65 -134 -111 0
-65 134 -111 0
65 134 -112 0
-65 -134 -112 0
83 -134 -117 0
-83 134 -117 0
83 134 -118 0
-83 -134 -118 0
12 -93 0
12 -94 0
93 -93 0
94 -94 0
30 -99 0
30 -100 0
99 -99 0
100 -100 0
48 -105 0
48 -106 0
105 -105 0
106 -106 0
66 -111 0
66 -112 0
111 -111 0
112 -112 0
84 -117 0
84 -118 0
117 -117 0
118 -118 0
-13 -93 0
-13 -94 0
93 -93 0
94 -94 0
-31 -99 0
-31 -100 0
99 -99 0
100 -100 0
-49 -105 0
-49 -106 0
105 -105 0
106 -106 0
-67 -111 0
-67 -112 0
111 -111 0
112 -112 0
-85 -117 0
-85 -118 0
117 -117 0
118 -118 0
14 -93 0
14 -94 0
93 -93 0
94 -94 0
32 -99 0
32 -100 0
99 -99 0
100 -100 0
50 -105 0
50 -106 0
105 -105 0
106 -106 0
68 -111 0
68 -112 0
111 -111 0
112 -112 0
86 -117 0
86 -118 0
117 -117 0
118 -118 0
15 -93 0
15 -94 0
93 -93 0
94 -94 0
33 -99 0
33 -100 0
99 -99 0
100 -100 0
51 -105 0
51 -106 0
105 -105 0
106 -106 0
69 -111 0
69 -112 0
111 -111 0
112 -112 0
87 -117 0
87 -118 0
117 -117 0
118 -118 0
16 -93 0
16 -94 0
93 -93 0
94 -94 0
34 -99 0
34 -100 0
99 -99 0
100 -100 0
52 -105 0
52 -106 0
105 -105 0
106 -106 0
70 -111 0
70 -112 0
111 -111 0
112 -112 0
88 -117 0
88 -118 0
117 -117 0
118 -118 0
17 -93 0
17 -94 0
93 -93 0
94 -94 0
35 -99 0
35 -100 0
99 -99 0
100 -100 0
53 -105 0
53 -106 0
105 -105 0
106 -106 0
71 -111 0
71 -112 0
111 -111 0
112 -112 0
89 -117 0
89 -118 0
117 -117 0
118 -118 0
18 -93 0
18 -94 0
93 -93 0
94 -94 0
36 -99 0
36 -100 0
99 -99 0
100 -100 0
54 -105 0
54 -106 0
105 -105 0
106 -106 0
72 -111 0
72 -112 0
111 -111 0
112 -112 0
90 -117 0
90 -118 0
117 -117 0
118 -118 0
-177 93 0
177 -93 0
-178 94 0
177 -94 0
-177 -93 0
-178 -94 0
-183 93 177 0
183 -93 0
183 -177 0
-184 94 178 0
184 -94 0
184 -178 0
-183 -99 0
-184 -100 0
-189 99 183 0
189 -99 0
189 -183 0
-190 100 184 0
190 -100 0
190 -184 0
-189 -105 0
-190 -106 0
-195 105 189 0
195 -105 0
195 -189 0
-196 106 190 0
196 -106 0
196 -190 0
-195 -111 0
-196 -112 0
-201 111 195 0
201 -111 0
201 -195 0
-202 112 196 0
202 -112 0
202 -196 0
-201 -117 0
-202 -118 0
201 0
202 0
1 -135 -95 0
-1 135 -95 0
1 135 -96 0
-1 -135 -96 0
19 -135 -101 0
-19 135 -101 0
19 135 -102 0
-19 -135 -102 0
37 -135 -107 0
-37 135 -107 0
37 135 -108 0
-37 -135 -108 0
55 -135 -113 0
-55 135 -113 0
55 135 -114 0
-55 -135 -114 0
73 -135 -119 0
-73 135 -119 0
73 135 -120 0
-73 -135 -120 0
2 -95 0
2 -96 0
95 -95 0
96 -96 0
20 -101 0
20 -102 0
101 -101 0
102 -102 0
38 -107 0
38 -108 0
107 -107 0
108 -108 0
56 -113 0
56 -114 0
113 -113 0
114 -114 0
74 -119 0
74 -120 0
119 -119 0
120 -120 0
3 -136 -95 0
-3 136 -95 0
3 136 -96 0
-3 -136 -96 0
21 -136 -101 0
-21 136 -101 0
21 136 -102 0
-21 -136 -102 0
39 -136 -107 0
-39 136 -107 0
39 136 -108 0
-39 -136 -108 0
57 -136 -113 0
-57 136 -113 0
57 136 -114 0
-57 -136 -114 0
75 -136 -119 0
-75 136 -119 0
75 136 -120 0
-75 -136 -120 0
4 -137 -95 0
-4 137 -95 0
4 137 -96 0
-4 -137 -96 0
22 -137 -101 0
-22 137 -101 0
22 137 -102 0
-22 -137 -102 0
40 -137 -107 0
-40 137 -107 0
40 137 -108 0
-40 -137 -108 0
58 -137 -113 0
-58 137 -113 0
58 137 -114 0
-58 -137 -114 0
76 -137 -119 0
-76 137 -119 0
76 137 -120 0
-76 -137 -120 0
5 -138 -95 0
-5 138 -95 0
5 138 -96 0
-5 -138 -96 0
23 -138 -101 0
-23 138 -101 0
23 138 -102 0
-23 -138 -102 0
41 -138 -107 0
-41 138 -107 0
41 138 -108 0
-41 -138 -108 0
59 -138 -113 0
-59 138 -113 0
59 138 -114 0
-59 -138 -114 0
77 -138 -119 0
-77 138 -119 0
77 138 -120 0
-77 -138 -120 0
6 -139 -95 0
-6 139 -95 0
6 139 -96 0
-6 -139 -96 0
24 -139 -101 0
-24 139 -101 0
24 139 -102 0
-24 -139 -102 0
42 -139 -107 0
-42 139 -107 0
42 139 -108 0
-42 -139 -108 0
60 -139 -113 0
-60 139 -113 0
60 139 -114 0
-60 -139 -114 0
78 -139 -119 0
-78 139 -119 0
78 139 -120 0
-78 -139 -120 0
7 -140 -95 0
-7 140 -95 0
7 140 -96 0
-7 -140 -96 0
25 -140 -101 0
-25 140 -101 0
25 140 -102 0
-25 -140 -102 0
43 -140 -107 0
-43 140 -107 0
43 140 -108 0
-43 -140 -108 0
61 -140 -113 0
-61 140 -113 0
61 140 -114 0
-61 -140 -114 0
79 -140 -119 0
-79 140 -119 0
79 140 -120 0
-79 -140 -120 0
8 -95 0
8 -96 0
95 -95 0
96 -96 0
26 -101 0
26 -102 0
101 -101 0
102 -102 0
44 -107 0
44 -108 0
107 -107 0
108 -108 0
62 -113 0
62 -114 0
113 -113 0
114 -114 0
80 -119 0
80 -120 0
119 -119 0
120 -120 0
9 -141 -95 0
-9 141 -95 0
9 141 -96 0
-9 -141 -96 0
27 -141 -101 0
-27 141 -101 0
27 141 -102 0
-27 -141 -102 0
45 -141 -107 0
-45 141 -107 0
45 141 -108 0
-45 -141 -108 0
63 -141 -113 0
-63 141 -113 0
63 141 -114 0
-63 -141 -114 0
81 -141 -119 0
-81 141 -119 0
81 141 -120 0
-81 -141 -120 0
-10 -95 0
-10 -96 0
95 -95 0
96 -96 0
-28 -101 0
-28 -102 0
101 -101 0
102 -102 0
-46 -107 0
-46 -108 0
107 -107 0
108 -108 0
-64 -113 0
-64 -114 0
113 -113 0
114 -114 0
-82 -119 0
-82 -120 0
119 -119 0
120 -120 0
11 -142 -95 0
-11 142 -95 0
11 142 -96 0
-11 -142 -96 0
29 -142 -101 0
-29 142 -101 0
29 142 -102 0
-29 -142 -102 0
47 -142 -107 0
-47 142 -107 0
47 142 -108 0
-47 -142 -108 0
65 -142 -113 0
-65 142 -113 0
65 142 -114 0
-65 -142 -114 0
83 -142 -119 0
-83 142 -119 0
83 142 -120 0
-83 -142 -120 0
12 -143 -95 0
-12 143 -95 0
12 143 -96 0
-12 -143 -96 0
30 -143 -101 0
-30 143 -101 0
30 143 -102 0
-30 -143 -102 0
48 -143 -107 0
-48 143 -107 0
48 143 -108 0
-48 -143 -108 0
66 -143 -113 0
-66 143 -113 0
66 143 -114 0
-66 -143 -114 0
84 -143 -119 0
-84 143 -119 0
84 143 -120 0
-84 -143 -120 0
-13 -95 0
-13 -96 0
95 -95 0
96 -96 0
-31 -101 0
-31 -102 0
101 -101 0
102 -102 0
-49 -107 0
-49 -108 0
107 -107 0
108 -108 0
-67 -113 0
-67 -114 0
113 -113 0
114 -114 0
-85 -119 0
-85 -120 0
119 -119 0
120 -120 0
14 -95 0
14 -96 0
95 -95 0
96 -96 0
32 -101 0
32 -102 0
101 -101 0
102 -102 0
50 -107 0
50 -108 0
107 -107 0
108 -108 0
68 -113 0
68 -114 0
113 -113 0
114 -114 0
86 -119 0
86 -120 0
119 -119 0
120 -120 0
15 -144 -95 0
-15 144 -95 0
15 144 -96 0
-15 -144 -96 0
33 -144 -101 0
-33 144 -101 0
33 144 -102 0
-33 -144 -102 0
51 -144 -107 0
-51 144 -107 0
51 144 -108 0
-51 -144 -108 0
69 -144 -113 0
-69 144 -113 0
69 144 -114 0
-69 -144 -114 0
87 -144 -119 0
-87 144 -119 0
87 144 -120 0
-87 -144 -120 0
16 -95 0
16 -96 0
95 -95 0
96 -96 0
34 -101 0
34 -102 0
101 -101 0
102 -102 0
52 -107 0
52 -108 0
107 -107 0
108 -108 0
70 -113 0
70 -114 0
113 -113 0
114 -114 0
88 -119 0
88 -120 0
119 -119 0
120 -120 0
17 -145 -95 0
-17 145 -95 0
17 145 -96 0
-17 -145 -96 0
35 -145 -101 0
-35 145 -101 0
35 145 -102 0
-35 -145 -102 0
53 -145 -107 0
-53 145 -107 0
53 145 -108 0
-53 -145 -108 0
71 -145 -113 0
-71 145 -113 0
71 145 -114 0
-71 -145 -114 0
89 -145 -119 0
-89 145 -119 0
89 145 -120 0
-89 -145 -120 0
18 -95 0
18 -96 0
95 -95 0
96 -96 0
36 -101 0
36 -102 0
101 -101 0
102 -102 0
54 -107 0
54 -108 0
107 -107 0
108 -108 0
72 -113 0
72 -114 0
113 -113 0
114 -114 0
90 -119 0
90 -120 0
119 -119 0
120 -120 0
-179 95 0
179 -95 0
-180 96 0
179 -96 0
-179 -95 0
-180 -96 0
-185 95 179 0
185 -95 0
185 -179 0
-186 96 180 0
186 -96 0
186 -180 0
-185 -101 0
-186 -102 0
-191 101 185 0
191 -101 0
191 -185 0
-192 102 186 0
192 -102 0
192 -186 0
-191 -107 0
-192 -108 0
-197 107 191 0
197 -107 0
197 -191 0
-198 108 192 0
198 -108 0
198 -192 0
-197 -113 0
-198 -114 0
-203 113 197 0
203 -113 0
203 -197 0
-204 114 198 0
204 -114 0
204 -198 0
-203 -119 0
-204 -120 0
203 0
204 0
